TYPE : TSP
DIMENSION : 10
EDGE_WEIGHT_TYPE : EXPLICIT
EDGE_WEIGHT_FORMAT : FULL_MATRIX
EDGE_WEIGHT_SECTION
0 5228 2676 6424 8070 3117 5208 6221 2059 5426 
5228 0 6569 8430 5200 8341 3712 2785 3604 5919 
2676 6569 0 3921 7531 3557 4808 6406 4431 3814 
6424 8430 3921 0 6625 7203 5077 6865 7726 2710 
8070 5200 7531 6625 0 10754 2875 2432 7597 4177 
3117 8341 3557 7203 10754 0 7895 9172 4963 7345 
5208 3712 4808 5077 2875 7895 0 1822 4973 2383 
6221 2785 6406 6865 2432 9172 1822 0 5374 4155 
2059 3604 4431 7726 7597 4963 4973 5374 0 6058 
5426 5919 3814 2710 4177 7345 2383 4155 6058 0 
EOF
